839
tour
0 40 50
5 65 65
7 66 66
8 68 68
10 66 66
11 69 69
9 70 70
6 69 69
4 68 68
2 70 70
1 68 68
75 65 65
0 40 50
0 40 50
13 75 75
17 75 75
18 75 75
19 80 80
15 80 80
16 85 85
14 85 85
12 85 85
0 40 50
0 40 50
20 50 50
24 50 50
25 52 52
27 52 52
29 50 50
30 55 55
28 55 55
26 55 55
23 55 55
22 52 52
21 52 52
0 40 50
0 40 50
43 35 35
42 32 32
41 32 32
40 30 30
44 30 30
46 32 32
45 30 30
48 30 30
51 30 30
50 32 32
52 35 35
49 35 35
47 35 35
0 40 50
0 40 50
32 40 40
33 40 40
31 35 35
35 35 35
38 40 40
39 45 45
36 45 45
37 40 40
34 45 45
0 40 50
0 40 50
57 15 15
55 15 15
54 10 10
53 5 5
56 5 5
58 5 5
60 5 5
59 15 15
0 40 50
0 40 50
67 40 40
65 40 40
63 40 40
62 35 35
74 35 35
72 30 30
61 30 30
64 30 30
68 30 30
66 35 35
69 35 35
0 40 50
0 40 50
81 35 35
78 35 35
76 35 35
71 35 35
70 30 30
73 30 30
77 30 30
79 30 30
80 25 25
0 40 50
0 40 50
90 55 55
87 55 55
86 55 55
83 55 55
82 55 55
84 58 58
85 60 60
88 60 60
89 58 58
91 60 60
0 40 50
0 40 50
98 75 75
96 80 80
95 80 80
94 82 82
92 85 85
93 85 85
97 85 85
100 85 85
99 80 80
3 66 66
0 40 50
